
  22   10
  10   10   10   10   10   10   10   10   10   10

   0   0   0   0   0   0   0   0   0   0   0   8 2 3 5 7 11 12 13 21 
   3   0   0   0   0  10   0   0   0   0   0   3 15 10 4 
   8   0   0   0   0   0   0  10   0   0   0   6 20 19 17 16 15 8 
   5   0   0  10   0   0   0   0   0   0   0   3 18 16 6 
   5   0  10   0   0   0   0   0   0   0   0   3 16 15 9 
   5  10   0   0   0   0   0   0   0   0   0   2 17 8 
   4   0   0   0   0   0   0   0   0   0  10   3 18 15 14 
   7   0   0   0   0   0   0   0   0  10   0   1 9 
  10   0   0   0   0   0   0   0   0  10   0   1 14 
  10   0   0   0  10   0   0   0   0   0   0   1 16 
   8   0   0   0   0   0  10   0   0   0   0   1 15 
   9   0   0   0   0  10   0   0   0   0   0   1 15 
   6   0   0   0   0   0  10   0   0   0   0   1 14 
   9   0   0   0   0  10   0   0   0   0   0   1 22
   1   0   0   0   0   0  10   0   0   0   0   1 22
   3   0   0   0   0  10   0   0   0   0   0   1 22
   2   0   0   0   0   0  10   0   0   0   0   1 22
   7   0   0   0   0   0   0   0   0   0  10   1 22
   2   0  10   0   0   0   0   0   0   0   0   1 22
   4   0   0   0   0   0   0   0   0   0  10   1 22
   9   0   0   0  10   0   0   0   0   0   0   1 22
   0   0   0   0   0   0   0   0   0   0   0   0 
